50
1 0 47
2 0 18
2 1 7
3 0 25
3 1 29
3 2 1
4 0 22
4 1 45
4 2 31
4 3 35
5 0 30
5 1 8
5 2 20
5 3 1
5 4 45
6 0 37
6 1 16
6 2 37
6 3 35
6 4 36
6 5 33
7 0 15
7 1 24
7 2 35
7 3 43
7 4 16
7 5 9
7 6 20
8 0 16
8 1 47
8 2 25
8 3 21
8 4 1
8 5 49
8 6 5
8 7 48
9 0 10
9 1 19
9 2 36
9 3 15
9 4 13
9 5 11
9 6 28
9 7 8
9 8 19
10 0 24
10 1 31
10 2 35
10 3 27
10 4 8
10 5 47
10 6 15
10 7 2
10 8 20
10 9 25
11 0 27
11 1 35
11 2 3
11 3 31
11 4 14
11 5 6
11 6 22
11 7 5
11 8 19
11 9 49
11 10 18
12 0 7
12 1 34
12 2 11
12 3 37
12 4 8
12 5 5
12 6 8
12 7 23
12 8 37
12 9 15
12 10 25
12 11 48
13 0 23
13 1 1
13 2 26
13 3 1
13 4 25
13 5 43
13 6 35
13 7 33
13 8 40
13 9 31
13 10 40
13 11 2
13 12 39
14 0 3
14 1 9
14 2 43
14 3 21
14 4 38
14 5 42
14 6 23
14 7 16
14 8 35
14 9 10
14 10 6
14 11 19
14 12 16
14 13 4
15 0 26
15 1 28
15 2 23
15 3 2
15 4 49
15 5 23
15 6 26
15 7 2
15 8 32
15 9 28
15 10 23
15 11 21
15 12 41
15 13 48
15 14 31
16 0 14
16 1 6
16 2 19
16 3 28
16 4 44
16 5 50
16 6 44
16 7 13
16 8 34
16 9 10
16 10 45
16 11 26
16 12 16
16 13 31
16 14 13
16 15 11
17 0 5
17 1 9
17 2 48
17 3 42
17 4 25
17 5 19
17 6 39
17 7 36
17 8 9
17 9 35
17 10 14
17 11 20
17 12 40
17 13 5
17 14 24
17 15 16
17 16 37
18 0 7
18 1 23
18 2 42
18 3 46
18 4 26
18 5 35
18 6 11
18 7 12
18 8 11
18 9 35
18 10 42
18 11 34
18 12 21
18 13 16
18 14 6
18 15 47
18 16 33
18 17 44
19 0 45
19 1 46
19 2 14
19 3 5
19 4 38
19 5 42
19 6 4
19 7 5
19 8 13
19 9 32
19 10 16
19 11 13
19 12 30
19 13 29
19 14 49
19 15 34
19 16 11
19 17 40
19 18 36
20 0 18
20 1 25
20 2 8
20 3 45
20 4 32
20 5 25
20 6 40
20 7 30
20 8 7
20 9 22
20 10 16
20 11 32
20 12 29
20 13 10
20 14 19
20 15 49
20 16 48
20 17 12
20 18 1
20 19 42
21 0 8
21 1 34
21 2 12
21 3 30
21 4 48
21 5 17
21 6 26
21 7 17
21 8 38
21 9 1
21 10 12
21 11 29
21 12 45
21 13 22
21 14 21
21 15 9
21 16 48
21 17 22
21 18 49
21 19 4
21 20 42
22 0 23
22 1 24
22 2 7
22 3 7
22 4 18
22 5 15
22 6 41
22 7 15
22 8 10
22 9 17
22 10 3
22 11 37
22 12 17
22 13 50
22 14 18
22 15 20
22 16 12
22 17 45
22 18 39
22 19 48
22 20 30
22 21 26
23 0 28
23 1 21
23 2 37
23 3 42
23 4 27
23 5 41
23 6 29
23 7 37
23 8 29
23 9 15
23 10 16
23 11 27
23 12 20
23 13 37
23 14 48
23 15 46
23 16 6
23 17 37
23 18 48
23 19 18
23 20 43
23 21 33
23 22 43
24 0 33
24 1 15
24 2 50
24 3 42
24 4 9
24 5 23
24 6 17
24 7 11
24 8 45
24 9 28
24 10 22
24 11 17
24 12 17
24 13 45
24 14 27
24 15 33
24 16 8
24 17 20
24 18 40
24 19 46
24 20 43
24 21 41
24 22 13
24 23 21
25 0 34
25 1 4
25 2 2
25 3 4
25 4 1
25 5 6
25 6 32
25 7 32
25 8 38
25 9 6
25 10 8
25 11 19
25 12 14
25 13 10
25 14 15
25 15 48
25 16 5
25 17 40
25 18 17
25 19 20
25 20 24
25 21 22
25 22 7
25 23 14
25 24 19
26 0 22
26 1 12
26 2 39
26 3 25
26 4 41
26 5 23
26 6 46
26 7 31
26 8 34
26 9 27
26 10 11
26 11 2
26 12 30
26 13 39
26 14 44
26 15 3
26 16 30
26 17 33
26 18 32
26 19 49
26 20 14
26 21 46
26 22 30
26 23 31
26 24 38
26 25 36
27 0 4
27 1 39
27 2 31
27 3 31
27 4 35
27 5 44
27 6 3
27 7 31
27 8 49
27 9 31
27 10 39
27 11 27
27 12 16
27 13 42
27 14 31
27 15 24
27 16 7
27 17 19
27 18 34
27 19 46
27 20 19
27 21 49
27 22 22
27 23 5
27 24 49
27 25 19
27 26 21
28 0 19
28 1 25
28 2 9
28 3 3
28 4 42
28 5 31
28 6 9
28 7 50
28 8 24
28 9 37
28 10 1
28 11 49
28 12 23
28 13 4
28 14 43
28 15 48
28 16 27
28 17 1
28 18 39
28 19 8
28 20 23
28 21 22
28 22 27
28 23 16
28 24 2
28 25 26
28 26 44
28 27 6
29 0 13
29 1 6
29 2 15
29 3 31
29 4 18
29 5 32
29 6 7
29 7 18
29 8 50
29 9 3
29 10 19
29 11 10
29 12 4
29 13 39
29 14 19
29 15 12
29 16 10
29 17 49
29 18 38
29 19 18
29 20 33
29 21 47
29 22 39
29 23 4
29 24 43
29 25 31
29 26 2
29 27 50
29 28 35
30 0 6
30 1 31
30 2 45
30 3 28
30 4 7
30 5 31
30 6 7
30 7 22
30 8 17
30 9 44
30 10 15
30 11 50
30 12 14
30 13 15
30 14 39
30 15 50
30 16 28
30 17 9
30 18 2
30 19 29
30 20 43
30 21 10
30 22 35
30 23 36
30 24 18
30 25 20
30 26 30
30 27 11
30 28 46
30 29 41
31 0 31
31 1 20
31 2 18
31 3 43
31 4 32
31 5 20
31 6 15
31 7 38
31 8 17
31 9 29
31 10 15
31 11 11
31 12 18
31 13 24
31 14 44
31 15 26
31 16 8
31 17 26
31 18 10
31 19 31
31 20 31
31 21 2
31 22 5
31 23 37
31 24 11
31 25 29
31 26 44
31 27 40
31 28 11
31 29 33
31 30 11
32 0 32
32 1 17
32 2 2
32 3 34
32 4 27
32 5 40
32 6 33
32 7 2
32 8 4
32 9 31
32 10 19
32 11 24
32 12 41
32 13 41
32 14 19
32 15 2
32 16 30
32 17 24
32 18 1
32 19 48
32 20 20
32 21 15
32 22 9
32 23 6
32 24 3
32 25 34
32 26 26
32 27 14
32 28 13
32 29 34
32 30 12
32 31 1
33 0 23
33 1 28
33 2 15
33 3 36
33 4 10
33 5 10
33 6 1
33 7 40
33 8 10
33 9 15
33 10 31
33 11 48
33 12 30
33 13 29
33 14 13
33 15 22
33 16 25
33 17 31
33 18 16
33 19 16
33 20 5
33 21 13
33 22 6
33 23 20
33 24 21
33 25 12
33 26 33
33 27 22
33 28 21
33 29 43
33 30 23
33 31 10
33 32 46
34 0 38
34 1 1
34 2 10
34 3 24
34 4 5
34 5 18
34 6 49
34 7 26
34 8 29
34 9 31
34 10 46
34 11 6
34 12 10
34 13 43
34 14 11
34 15 3
34 16 49
34 17 7
34 18 35
34 19 23
34 20 25
34 21 46
34 22 13
34 23 47
34 24 16
34 25 17
34 26 12
34 27 45
34 28 32
34 29 30
34 30 3
34 31 31
34 32 26
34 33 32
35 0 40
35 1 22
35 2 50
35 3 13
35 4 43
35 5 29
35 6 19
35 7 31
35 8 22
35 9 2
35 10 34
35 11 18
35 12 41
35 13 17
35 14 21
35 15 25
35 16 26
35 17 50
35 18 37
35 19 50
35 20 42
35 21 7
35 22 30
35 23 29
35 24 26
35 25 23
35 26 43
35 27 4
35 28 10
35 29 34
35 30 14
35 31 31
35 32 7
35 33 2
35 34 27
36 0 16
36 1 21
36 2 22
36 3 14
36 4 12
36 5 27
36 6 21
36 7 21
36 8 41
36 9 47
36 10 2
36 11 12
36 12 7
36 13 2
36 14 10
36 15 15
36 16 24
36 17 49
36 18 12
36 19 40
36 20 22
36 21 46
36 22 30
36 23 13
36 24 49
36 25 19
36 26 50
36 27 17
36 28 41
36 29 28
36 30 25
36 31 24
36 32 31
36 33 17
36 34 6
36 35 24
37 0 42
37 1 49
37 2 14
37 3 8
37 4 33
37 5 19
37 6 47
37 7 50
37 8 44
37 9 13
37 10 6
37 11 2
37 12 36
37 13 9
37 14 33
37 15 37
37 16 20
37 17 39
37 18 46
37 19 13
37 20 20
37 21 22
37 22 39
37 23 38
37 24 44
37 25 11
37 26 35
37 27 26
37 28 3
37 29 43
37 30 49
37 31 28
37 32 46
37 33 9
37 34 43
37 35 39
37 36 50
38 0 1
38 1 11
38 2 22
38 3 3
38 4 42
38 5 31
38 6 15
38 7 30
38 8 20
38 9 18
38 10 4
38 11 44
38 12 6
38 13 22
38 14 48
38 15 41
38 16 13
38 17 44
38 18 12
38 19 35
38 20 39
38 21 33
38 22 13
38 23 42
38 24 36
38 25 9
38 26 26
38 27 29
38 28 10
38 29 6
38 30 16
38 31 3
38 32 35
38 33 49
38 34 21
38 35 47
38 36 2
38 37 45
39 0 33
39 1 47
39 2 4
39 3 11
39 4 18
39 5 25
39 6 24
39 7 5
39 8 4
39 9 27
39 10 29
39 11 9
39 12 1
39 13 38
39 14 25
39 15 42
39 16 7
39 17 42
39 18 49
39 19 1
39 20 34
39 21 44
39 22 28
39 23 4
39 24 43
39 25 29
39 26 4
39 27 28
39 28 42
39 29 7
39 30 27
39 31 41
39 32 3
39 33 49
39 34 49
39 35 28
39 36 43
39 37 30
39 38 43
40 0 9
40 1 37
40 2 6
40 3 50
40 4 4
40 5 41
40 6 30
40 7 1
40 8 32
40 9 11
40 10 50
40 11 3
40 12 18
40 13 24
40 14 14
40 15 11
40 16 15
40 17 18
40 18 12
40 19 31
40 20 50
40 21 23
40 22 47
40 23 21
40 24 19
40 25 26
40 26 38
40 27 4
40 28 23
40 29 23
40 30 30
40 31 31
40 32 29
40 33 24
40 34 37
40 35 41
40 36 42
40 37 35
40 38 10
40 39 16
41 0 35
41 1 11
41 2 37
41 3 27
41 4 3
41 5 24
41 6 50
41 7 19
41 8 11
41 9 32
41 10 5
41 11 21
41 12 19
41 13 45
41 14 42
41 15 2
41 16 4
41 17 7
41 18 24
41 19 27
41 20 7
41 21 32
41 22 21
41 23 18
41 24 20
41 25 7
41 26 32
41 27 46
41 28 50
41 29 3
41 30 17
41 31 32
41 32 23
41 33 19
41 34 20
41 35 4
41 36 20
41 37 14
41 38 24
41 39 26
41 40 30
42 0 13
42 1 45
42 2 10
42 3 15
42 4 24
42 5 42
42 6 50
42 7 14
42 8 50
42 9 45
42 10 27
42 11 24
42 12 14
42 13 41
42 14 42
42 15 8
42 16 36
42 17 22
42 18 39
42 19 42
42 20 21
42 21 6
42 22 17
42 23 21
42 24 15
42 25 30
42 26 20
42 27 20
42 28 17
42 29 37
42 30 11
42 31 47
42 32 20
42 33 29
42 34 5
42 35 14
42 36 9
42 37 44
42 38 45
42 39 37
42 40 2
42 41 43
43 0 13
43 1 14
43 2 34
43 3 47
43 4 47
43 5 19
43 6 17
43 7 35
43 8 13
43 9 33
43 10 20
43 11 11
43 12 42
43 13 31
43 14 50
43 15 33
43 16 5
43 17 15
43 18 47
43 19 40
43 20 4
43 21 41
43 22 42
43 23 30
43 24 37
43 25 3
43 26 26
43 27 15
43 28 21
43 29 45
43 30 48
43 31 28
43 32 36
43 33 41
43 34 18
43 35 29
43 36 24
43 37 45
43 38 5
43 39 10
43 40 30
43 41 16
43 42 31
44 0 20
44 1 25
44 2 50
44 3 32
44 4 3
44 5 29
44 6 46
44 7 5
44 8 6
44 9 32
44 10 20
44 11 38
44 12 21
44 13 46
44 14 9
44 15 21
44 16 8
44 17 7
44 18 17
44 19 8
44 20 2
44 21 36
44 22 6
44 23 1
44 24 34
44 25 8
44 26 12
44 27 2
44 28 19
44 29 15
44 30 29
44 31 30
44 32 48
44 33 29
44 34 45
44 35 29
44 36 35
44 37 1
44 38 9
44 39 23
44 40 49
44 41 12
44 42 36
44 43 38
45 0 41
45 1 38
45 2 12
45 3 12
45 4 36
45 5 21
45 6 9
45 7 34
45 8 26
45 9 37
45 10 23
45 11 24
45 12 33
45 13 26
45 14 5
45 15 50
45 16 38
45 17 48
45 18 25
45 19 34
45 20 47
45 21 3
45 22 17
45 23 8
45 24 26
45 25 9
45 26 14
45 27 9
45 28 42
45 29 2
45 30 12
45 31 33
45 32 20
45 33 21
45 34 18
45 35 25
45 36 41
45 37 19
45 38 25
45 39 48
45 40 44
45 41 41
45 42 36
45 43 24
45 44 47
46 0 37
46 1 37
46 2 28
46 3 17
46 4 14
46 5 43
46 6 43
46 7 40
46 8 32
46 9 25
46 10 38
46 11 36
46 12 20
46 13 19
46 14 44
46 15 42
46 16 40
46 17 6
46 18 26
46 19 46
46 20 5
46 21 30
46 22 48
46 23 13
46 24 37
46 25 36
46 26 46
46 27 2
46 28 27
46 29 41
46 30 35
46 31 10
46 32 32
46 33 17
46 34 46
46 35 50
46 36 47
46 37 30
46 38 42
46 39 28
46 40 29
46 41 9
46 42 27
46 43 11
46 44 22
46 45 40
47 0 24
47 1 6
47 2 43
47 3 33
47 4 20
47 5 38
47 6 44
47 7 18
47 8 21
47 9 12
47 10 39
47 11 50
47 12 39
47 13 18
47 14 43
47 15 5
47 16 30
47 17 46
47 18 28
47 19 24
47 20 41
47 21 47
47 22 23
47 23 10
47 24 39
47 25 22
47 26 30
47 27 2
47 28 23
47 29 8
47 30 20
47 31 24
47 32 11
47 33 15
47 34 50
47 35 39
47 36 21
47 37 12
47 38 36
47 39 39
47 40 33
47 41 37
47 42 10
47 43 36
47 44 46
47 45 49
47 46 50
48 0 39
48 1 18
48 2 34
48 3 12
48 4 24
48 5 21
48 6 1
48 7 9
48 8 1
48 9 15
48 10 4
48 11 45
48 12 9
48 13 6
48 14 7
48 15 33
48 16 23
48 17 22
48 18 41
48 19 19
48 20 15
48 21 29
48 22 6
48 23 15
48 24 5
48 25 18
48 26 50
48 27 2
48 28 37
48 29 47
48 30 20
48 31 23
48 32 13
48 33 38
48 34 32
48 35 36
48 36 40
48 37 14
48 38 10
48 39 4
48 40 41
48 41 16
48 42 4
48 43 43
48 44 23
48 45 37
48 46 40
48 47 39
49 0 9
49 1 28
49 2 19
49 3 22
49 4 25
49 5 33
49 6 49
49 7 46
49 8 8
49 9 48
49 10 38
49 11 32
49 12 50
49 13 18
49 14 34
49 15 41
49 16 32
49 17 4
49 18 46
49 19 16
49 20 27
49 21 8
49 22 50
49 23 38
49 24 6
49 25 4
49 26 15
49 27 9
49 28 44
49 29 50
49 30 3
49 31 17
49 32 48
49 33 50
49 34 19
49 35 41
49 36 19
49 37 8
49 38 28
49 39 22
49 40 37
49 41 31
49 42 45
49 43 23
49 44 38
49 45 36
49 46 2
49 47 33
49 48 3
